\* Source Pyomo model name=unknown *\

min 
obj:
+1 u_plus(1)
+1 u_plus(2)
+1 u_plus(3)
+1 u_plus(4)
+1 u_plus(5)
+1 u_plus(6)
+1 u_plus(7)
+1 u_plus(8)
+1 u_plus(9)
+1 u_plus(10)
+1 u_plus(11)
+1 u_plus(12)
+1 u_plus(13)
+1 u_plus(14)
+1 u_plus(15)
+1 u_plus(16)
+1 u_plus(17)
+1 u_plus(18)
+1 u_plus(19)
+1 u_plus(20)
+1 u_plus(21)
+1 u_plus(22)
+1 u_plus(23)
+1 u_plus(24)
+1 u_plus(25)
+1 u_plus(26)
+1 u_plus(27)
+1 u_plus(28)
+1 u_plus(29)
+1 u_plus(30)
+1 u_plus(31)
+1 u_plus(32)
+1 u_plus(33)
+1 u_plus(34)
+1 u_plus(35)
+1 u_plus(36)
+1 u_plus(37)
+1 u_plus(38)
+1 u_plus(39)
+1 u_plus(40)
+1 u_plus(41)
+1 u_plus(42)
+1 u_plus(43)
+1 u_plus(44)
+1 u_plus(45)
+1 u_plus(46)
+1 u_plus(47)
+1 u_plus(48)
+1 u_plus(49)
+1 u_plus(50)
+1 u_plus(51)
+1 u_plus(52)
+1 u_plus(53)
+1 u_plus(54)
+1 u_plus(55)
+1 u_plus(56)
+1 u_plus(57)
+1 u_plus(58)
+1 u_plus(59)
+1 u_plus(60)
+1 u_plus(61)
+1 u_plus(62)
+1 u_plus(63)
+1 u_plus(64)
+1 u_plus(65)
+1 u_plus(66)
+1 u_plus(67)
+1 u_plus(68)
+1 u_plus(69)
+1 u_plus(70)
+1 u_plus(71)
+1 u_plus(72)
+1 u_plus(73)
+1 u_plus(74)
+1 u_plus(75)
+1 u_plus(76)
+1 u_plus(77)
+1 u_plus(78)
+1 u_plus(79)
+1 u_plus(80)
+1 u_plus(81)
+1 u_plus(82)
+1 u_plus(83)
+1 u_plus(84)
+1 u_plus(85)
+1 u_plus(86)
+1 u_plus(87)
+1 u_plus(88)
+1 u_plus(89)
+1 u_plus(90)
+1 u_plus(91)
+1 u_plus(92)
+1 u_plus(93)
+1 u_plus(94)
+1 u_plus(95)
+1 u_plus(96)
+1 u_plus(97)
+1 u_plus(98)
+1 u_plus(99)
+1 u_plus(100)
+1 u_minus(1)
+1 u_minus(2)
+1 u_minus(3)
+1 u_minus(4)
+1 u_minus(5)
+1 u_minus(6)
+1 u_minus(7)
+1 u_minus(8)
+1 u_minus(9)
+1 u_minus(10)
+1 u_minus(11)
+1 u_minus(12)
+1 u_minus(13)
+1 u_minus(14)
+1 u_minus(15)
+1 u_minus(16)
+1 u_minus(17)
+1 u_minus(18)
+1 u_minus(19)
+1 u_minus(20)
+1 u_minus(21)
+1 u_minus(22)
+1 u_minus(23)
+1 u_minus(24)
+1 u_minus(25)
+1 u_minus(26)
+1 u_minus(27)
+1 u_minus(28)
+1 u_minus(29)
+1 u_minus(30)
+1 u_minus(31)
+1 u_minus(32)
+1 u_minus(33)
+1 u_minus(34)
+1 u_minus(35)
+1 u_minus(36)
+1 u_minus(37)
+1 u_minus(38)
+1 u_minus(39)
+1 u_minus(40)
+1 u_minus(41)
+1 u_minus(42)
+1 u_minus(43)
+1 u_minus(44)
+1 u_minus(45)
+1 u_minus(46)
+1 u_minus(47)
+1 u_minus(48)
+1 u_minus(49)
+1 u_minus(50)
+1 u_minus(51)
+1 u_minus(52)
+1 u_minus(53)
+1 u_minus(54)
+1 u_minus(55)
+1 u_minus(56)
+1 u_minus(57)
+1 u_minus(58)
+1 u_minus(59)
+1 u_minus(60)
+1 u_minus(61)
+1 u_minus(62)
+1 u_minus(63)
+1 u_minus(64)
+1 u_minus(65)
+1 u_minus(66)
+1 u_minus(67)
+1 u_minus(68)
+1 u_minus(69)
+1 u_minus(70)
+1 u_minus(71)
+1 u_minus(72)
+1 u_minus(73)
+1 u_minus(74)
+1 u_minus(75)
+1 u_minus(76)
+1 u_minus(77)
+1 u_minus(78)
+1 u_minus(79)
+1 u_minus(80)
+1 u_minus(81)
+1 u_minus(82)
+1 u_minus(83)
+1 u_minus(84)
+1 u_minus(85)
+1 u_minus(86)
+1 u_minus(87)
+1 u_minus(88)
+1 u_minus(89)
+1 u_minus(90)
+1 u_minus(91)
+1 u_minus(92)
+1 u_minus(93)
+1 u_minus(94)
+1 u_minus(95)
+1 u_minus(96)
+1 u_minus(97)
+1 u_minus(98)
+1 u_minus(99)
+1 u_minus(100)

s.t.

c_e_congestion_constraint(1)_:
-1 u_plus(1)
+1 u_minus(1)
+320 x(1)
= 2021600.0

c_e_congestion_constraint(2)_:
-1 u_plus(2)
+1 u_minus(2)
+157 x(2)
= 2021600.0

c_e_congestion_constraint(3)_:
-1 u_plus(3)
+1 u_minus(3)
+213 x(3)
= 2021600.0

c_e_congestion_constraint(4)_:
-1 u_plus(4)
+1 u_minus(4)
+96 x(4)
= 2021600.0

c_e_congestion_constraint(5)_:
-1 u_plus(5)
+1 u_minus(5)
+413 x(5)
= 2021600.0

c_e_congestion_constraint(6)_:
-1 u_plus(6)
+1 u_minus(6)
+312 x(6)
= 2021600.0

c_e_congestion_constraint(7)_:
-1 u_plus(7)
+1 u_minus(7)
+333 x(7)
= 2021600.0

c_e_congestion_constraint(8)_:
-1 u_plus(8)
+1 u_minus(8)
+472 x(8)
= 2021600.0

c_e_congestion_constraint(9)_:
-1 u_plus(9)
+1 u_minus(9)
+171 x(9)
= 2021600.0

c_e_congestion_constraint(10)_:
-1 u_plus(10)
+1 u_minus(10)
+222 x(10)
= 2021600.0

c_e_congestion_constraint(11)_:
-1 u_plus(11)
+1 u_minus(11)
+439 x(11)
= 2021600.0

c_e_congestion_constraint(12)_:
-1 u_plus(12)
+1 u_minus(12)
+212 x(12)
= 2021600.0

c_e_congestion_constraint(13)_:
-1 u_plus(13)
+1 u_minus(13)
+190 x(13)
= 2021600.0

c_e_congestion_constraint(14)_:
-1 u_plus(14)
+1 u_minus(14)
+220 x(14)
= 2021600.0

c_e_congestion_constraint(15)_:
-1 u_plus(15)
+1 u_minus(15)
+372 x(15)
= 2021600.0

c_e_congestion_constraint(16)_:
-1 u_plus(16)
+1 u_minus(16)
+101 x(16)
= 2021600.0

c_e_congestion_constraint(17)_:
-1 u_plus(17)
+1 u_minus(17)
+212 x(17)
= 2021600.0

c_e_congestion_constraint(18)_:
-1 u_plus(18)
+1 u_minus(18)
+251 x(18)
= 2021600.0

c_e_congestion_constraint(19)_:
-1 u_plus(19)
+1 u_minus(19)
+86 x(19)
= 2021600.0

c_e_congestion_constraint(20)_:
-1 u_plus(20)
+1 u_minus(20)
+79 x(20)
= 2021600.0

c_e_congestion_constraint(21)_:
-1 u_plus(21)
+1 u_minus(21)
+295 x(21)
= 2021600.0

c_e_congestion_constraint(22)_:
-1 u_plus(22)
+1 u_minus(22)
+138 x(22)
= 2021600.0

c_e_congestion_constraint(23)_:
-1 u_plus(23)
+1 u_minus(23)
+343 x(23)
= 2021600.0

c_e_congestion_constraint(24)_:
-1 u_plus(24)
+1 u_minus(24)
+281 x(24)
= 2021600.0

c_e_congestion_constraint(25)_:
-1 u_plus(25)
+1 u_minus(25)
+372 x(25)
= 2021600.0

c_e_congestion_constraint(26)_:
-1 u_plus(26)
+1 u_minus(26)
+450 x(26)
= 2021600.0

c_e_congestion_constraint(27)_:
-1 u_plus(27)
+1 u_minus(27)
+100 x(27)
= 2021600.0

c_e_congestion_constraint(28)_:
-1 u_plus(28)
+1 u_minus(28)
+183 x(28)
= 2021600.0

c_e_congestion_constraint(29)_:
-1 u_plus(29)
+1 u_minus(29)
+99 x(29)
= 2021600.0

c_e_congestion_constraint(30)_:
-1 u_plus(30)
+1 u_minus(30)
+505 x(30)
= 2021600.0

c_e_congestion_constraint(31)_:
-1 u_plus(31)
+1 u_minus(31)
+99 x(31)
= 2021600.0

c_e_congestion_constraint(32)_:
-1 u_plus(32)
+1 u_minus(32)
+254 x(32)
= 2021600.0

c_e_congestion_constraint(33)_:
-1 u_plus(33)
+1 u_minus(33)
+330 x(33)
= 2021600.0

c_e_congestion_constraint(34)_:
-1 u_plus(34)
+1 u_minus(34)
+279 x(34)
= 2021600.0

c_e_congestion_constraint(35)_:
-1 u_plus(35)
+1 u_minus(35)
+300 x(35)
= 2021600.0

c_e_congestion_constraint(36)_:
-1 u_plus(36)
+1 u_minus(36)
+150 x(36)
= 2021600.0

c_e_congestion_constraint(37)_:
-1 u_plus(37)
+1 u_minus(37)
+340 x(37)
= 2021600.0

c_e_congestion_constraint(38)_:
-1 u_plus(38)
+1 u_minus(38)
+221 x(38)
= 2021600.0

c_e_congestion_constraint(39)_:
-1 u_plus(39)
+1 u_minus(39)
+79 x(39)
= 2021600.0

c_e_congestion_constraint(40)_:
-1 u_plus(40)
+1 u_minus(40)
+119 x(40)
= 2021600.0

c_e_congestion_constraint(41)_:
-1 u_plus(41)
+1 u_minus(41)
+43 x(41)
= 2021600.0

c_e_congestion_constraint(42)_:
-1 u_plus(42)
+1 u_minus(42)
+71 x(42)
= 2021600.0

c_e_congestion_constraint(43)_:
-1 u_plus(43)
+1 u_minus(43)
+219 x(43)
= 2021600.0

c_e_congestion_constraint(44)_:
-1 u_plus(44)
+1 u_minus(44)
+363 x(44)
= 2021600.0

c_e_congestion_constraint(45)_:
-1 u_plus(45)
+1 u_minus(45)
+98 x(45)
= 2021600.0

c_e_congestion_constraint(46)_:
-1 u_plus(46)
+1 u_minus(46)
+500 x(46)
= 2021600.0

c_e_congestion_constraint(47)_:
-1 u_plus(47)
+1 u_minus(47)
+413 x(47)
= 2021600.0

c_e_congestion_constraint(48)_:
-1 u_plus(48)
+1 u_minus(48)
+259 x(48)
= 2021600.0

c_e_congestion_constraint(49)_:
-1 u_plus(49)
+1 u_minus(49)
+182 x(49)
= 2021600.0

c_e_congestion_constraint(50)_:
-1 u_plus(50)
+1 u_minus(50)
+391 x(50)
= 2021600.0

c_e_congestion_constraint(51)_:
-1 u_plus(51)
+1 u_minus(51)
+360 x(51)
= 2021600.0

c_e_congestion_constraint(52)_:
-1 u_plus(52)
+1 u_minus(52)
+447 x(52)
= 2021600.0

c_e_congestion_constraint(53)_:
-1 u_plus(53)
+1 u_minus(53)
+181 x(53)
= 2021600.0

c_e_congestion_constraint(54)_:
-1 u_plus(54)
+1 u_minus(54)
+233 x(54)
= 2021600.0

c_e_congestion_constraint(55)_:
-1 u_plus(55)
+1 u_minus(55)
+414 x(55)
= 2021600.0

c_e_congestion_constraint(56)_:
-1 u_plus(56)
+1 u_minus(56)
+30 x(56)
= 2021600.0

c_e_congestion_constraint(57)_:
-1 u_plus(57)
+1 u_minus(57)
+333 x(57)
= 2021600.0

c_e_congestion_constraint(58)_:
-1 u_plus(58)
+1 u_minus(58)
+427 x(58)
= 2021600.0

c_e_congestion_constraint(59)_:
-1 u_plus(59)
+1 u_minus(59)
+251 x(59)
= 2021600.0

c_e_congestion_constraint(60)_:
-1 u_plus(60)
+1 u_minus(60)
+83 x(60)
= 2021600.0

c_e_congestion_constraint(61)_:
-1 u_plus(61)
+1 u_minus(61)
+144 x(61)
= 2021600.0

c_e_congestion_constraint(62)_:
-1 u_plus(62)
+1 u_minus(62)
+404 x(62)
= 2021600.0

c_e_congestion_constraint(63)_:
-1 u_plus(63)
+1 u_minus(63)
+76 x(63)
= 2021600.0

c_e_congestion_constraint(64)_:
-1 u_plus(64)
+1 u_minus(64)
+84 x(64)
= 2021600.0

c_e_congestion_constraint(65)_:
-1 u_plus(65)
+1 u_minus(65)
+196 x(65)
= 2021600.0

c_e_congestion_constraint(66)_:
-1 u_plus(66)
+1 u_minus(66)
+336 x(66)
= 2021600.0

c_e_congestion_constraint(67)_:
-1 u_plus(67)
+1 u_minus(67)
+411 x(67)
= 2021600.0

c_e_congestion_constraint(68)_:
-1 u_plus(68)
+1 u_minus(68)
+280 x(68)
= 2021600.0

c_e_congestion_constraint(69)_:
-1 u_plus(69)
+1 u_minus(69)
+115 x(69)
= 2021600.0

c_e_congestion_constraint(70)_:
-1 u_plus(70)
+1 u_minus(70)
+200 x(70)
= 2021600.0

c_e_congestion_constraint(71)_:
-1 u_plus(71)
+1 u_minus(71)
+117 x(71)
= 2021600.0

c_e_congestion_constraint(72)_:
-1 u_plus(72)
+1 u_minus(72)
+284 x(72)
= 2021600.0

c_e_congestion_constraint(73)_:
-1 u_plus(73)
+1 u_minus(73)
+263 x(73)
= 2021600.0

c_e_congestion_constraint(74)_:
-1 u_plus(74)
+1 u_minus(74)
+477 x(74)
= 2021600.0

c_e_congestion_constraint(75)_:
-1 u_plus(75)
+1 u_minus(75)
+431 x(75)
= 2021600.0

c_e_congestion_constraint(76)_:
-1 u_plus(76)
+1 u_minus(76)
+297 x(76)
= 2021600.0

c_e_congestion_constraint(77)_:
-1 u_plus(77)
+1 u_minus(77)
+380 x(77)
= 2021600.0

c_e_congestion_constraint(78)_:
-1 u_plus(78)
+1 u_minus(78)
+327 x(78)
= 2021600.0

c_e_congestion_constraint(79)_:
-1 u_plus(79)
+1 u_minus(79)
+155 x(79)
= 2021600.0

c_e_congestion_constraint(80)_:
-1 u_plus(80)
+1 u_minus(80)
+360 x(80)
= 2021600.0

c_e_congestion_constraint(81)_:
-1 u_plus(81)
+1 u_minus(81)
+360 x(81)
= 2021600.0

c_e_congestion_constraint(82)_:
-1 u_plus(82)
+1 u_minus(82)
+290 x(82)
= 2021600.0

c_e_congestion_constraint(83)_:
-1 u_plus(83)
+1 u_minus(83)
+350 x(83)
= 2021600.0

c_e_congestion_constraint(84)_:
-1 u_plus(84)
+1 u_minus(84)
+157 x(84)
= 2021600.0

c_e_congestion_constraint(85)_:
-1 u_plus(85)
+1 u_minus(85)
+116 x(85)
= 2021600.0

c_e_congestion_constraint(86)_:
-1 u_plus(86)
+1 u_minus(86)
+141 x(86)
= 2021600.0

c_e_congestion_constraint(87)_:
-1 u_plus(87)
+1 u_minus(87)
+82 x(87)
= 2021600.0

c_e_congestion_constraint(88)_:
-1 u_plus(88)
+1 u_minus(88)
+116 x(88)
= 2021600.0

c_e_congestion_constraint(89)_:
-1 u_plus(89)
+1 u_minus(89)
+99 x(89)
= 2021600.0

c_e_congestion_constraint(90)_:
-1 u_plus(90)
+1 u_minus(90)
+78 x(90)
= 2021600.0

c_e_congestion_constraint(91)_:
-1 u_plus(91)
+1 u_minus(91)
+220 x(91)
= 2021600.0

c_e_congestion_constraint(92)_:
-1 u_plus(92)
+1 u_minus(92)
+182 x(92)
= 2021600.0

c_e_congestion_constraint(93)_:
-1 u_plus(93)
+1 u_minus(93)
+96 x(93)
= 2021600.0

c_e_congestion_constraint(94)_:
-1 u_plus(94)
+1 u_minus(94)
+301 x(94)
= 2021600.0

c_e_congestion_constraint(95)_:
-1 u_plus(95)
+1 u_minus(95)
+121 x(95)
= 2021600.0

c_e_congestion_constraint(96)_:
-1 u_plus(96)
+1 u_minus(96)
+278 x(96)
= 2021600.0

c_e_congestion_constraint(97)_:
-1 u_plus(97)
+1 u_minus(97)
+372 x(97)
= 2021600.0

c_e_congestion_constraint(98)_:
-1 u_plus(98)
+1 u_minus(98)
+119 x(98)
= 2021600.0

c_e_congestion_constraint(99)_:
-1 u_plus(99)
+1 u_minus(99)
+282 x(99)
= 2021600.0

c_e_congestion_constraint(100)_:
-1 u_plus(100)
+1 u_minus(100)
+310 x(100)
= 2021600.0

bounds
   -inf <= u_plus(1) <= +inf
   -inf <= u_plus(2) <= +inf
   -inf <= u_plus(3) <= +inf
   -inf <= u_plus(4) <= +inf
   -inf <= u_plus(5) <= +inf
   -inf <= u_plus(6) <= +inf
   -inf <= u_plus(7) <= +inf
   -inf <= u_plus(8) <= +inf
   -inf <= u_plus(9) <= +inf
   -inf <= u_plus(10) <= +inf
   -inf <= u_plus(11) <= +inf
   -inf <= u_plus(12) <= +inf
   -inf <= u_plus(13) <= +inf
   -inf <= u_plus(14) <= +inf
   -inf <= u_plus(15) <= +inf
   -inf <= u_plus(16) <= +inf
   -inf <= u_plus(17) <= +inf
   -inf <= u_plus(18) <= +inf
   -inf <= u_plus(19) <= +inf
   -inf <= u_plus(20) <= +inf
   -inf <= u_plus(21) <= +inf
   -inf <= u_plus(22) <= +inf
   -inf <= u_plus(23) <= +inf
   -inf <= u_plus(24) <= +inf
   -inf <= u_plus(25) <= +inf
   -inf <= u_plus(26) <= +inf
   -inf <= u_plus(27) <= +inf
   -inf <= u_plus(28) <= +inf
   -inf <= u_plus(29) <= +inf
   -inf <= u_plus(30) <= +inf
   -inf <= u_plus(31) <= +inf
   -inf <= u_plus(32) <= +inf
   -inf <= u_plus(33) <= +inf
   -inf <= u_plus(34) <= +inf
   -inf <= u_plus(35) <= +inf
   -inf <= u_plus(36) <= +inf
   -inf <= u_plus(37) <= +inf
   -inf <= u_plus(38) <= +inf
   -inf <= u_plus(39) <= +inf
   -inf <= u_plus(40) <= +inf
   -inf <= u_plus(41) <= +inf
   -inf <= u_plus(42) <= +inf
   -inf <= u_plus(43) <= +inf
   -inf <= u_plus(44) <= +inf
   -inf <= u_plus(45) <= +inf
   -inf <= u_plus(46) <= +inf
   -inf <= u_plus(47) <= +inf
   -inf <= u_plus(48) <= +inf
   -inf <= u_plus(49) <= +inf
   -inf <= u_plus(50) <= +inf
   -inf <= u_plus(51) <= +inf
   -inf <= u_plus(52) <= +inf
   -inf <= u_plus(53) <= +inf
   -inf <= u_plus(54) <= +inf
   -inf <= u_plus(55) <= +inf
   -inf <= u_plus(56) <= +inf
   -inf <= u_plus(57) <= +inf
   -inf <= u_plus(58) <= +inf
   -inf <= u_plus(59) <= +inf
   -inf <= u_plus(60) <= +inf
   -inf <= u_plus(61) <= +inf
   -inf <= u_plus(62) <= +inf
   -inf <= u_plus(63) <= +inf
   -inf <= u_plus(64) <= +inf
   -inf <= u_plus(65) <= +inf
   -inf <= u_plus(66) <= +inf
   -inf <= u_plus(67) <= +inf
   -inf <= u_plus(68) <= +inf
   -inf <= u_plus(69) <= +inf
   -inf <= u_plus(70) <= +inf
   -inf <= u_plus(71) <= +inf
   -inf <= u_plus(72) <= +inf
   -inf <= u_plus(73) <= +inf
   -inf <= u_plus(74) <= +inf
   -inf <= u_plus(75) <= +inf
   -inf <= u_plus(76) <= +inf
   -inf <= u_plus(77) <= +inf
   -inf <= u_plus(78) <= +inf
   -inf <= u_plus(79) <= +inf
   -inf <= u_plus(80) <= +inf
   -inf <= u_plus(81) <= +inf
   -inf <= u_plus(82) <= +inf
   -inf <= u_plus(83) <= +inf
   -inf <= u_plus(84) <= +inf
   -inf <= u_plus(85) <= +inf
   -inf <= u_plus(86) <= +inf
   -inf <= u_plus(87) <= +inf
   -inf <= u_plus(88) <= +inf
   -inf <= u_plus(89) <= +inf
   -inf <= u_plus(90) <= +inf
   -inf <= u_plus(91) <= +inf
   -inf <= u_plus(92) <= +inf
   -inf <= u_plus(93) <= +inf
   -inf <= u_plus(94) <= +inf
   -inf <= u_plus(95) <= +inf
   -inf <= u_plus(96) <= +inf
   -inf <= u_plus(97) <= +inf
   -inf <= u_plus(98) <= +inf
   -inf <= u_plus(99) <= +inf
   -inf <= u_plus(100) <= +inf
   -inf <= u_minus(1) <= +inf
   -inf <= u_minus(2) <= +inf
   -inf <= u_minus(3) <= +inf
   -inf <= u_minus(4) <= +inf
   -inf <= u_minus(5) <= +inf
   -inf <= u_minus(6) <= +inf
   -inf <= u_minus(7) <= +inf
   -inf <= u_minus(8) <= +inf
   -inf <= u_minus(9) <= +inf
   -inf <= u_minus(10) <= +inf
   -inf <= u_minus(11) <= +inf
   -inf <= u_minus(12) <= +inf
   -inf <= u_minus(13) <= +inf
   -inf <= u_minus(14) <= +inf
   -inf <= u_minus(15) <= +inf
   -inf <= u_minus(16) <= +inf
   -inf <= u_minus(17) <= +inf
   -inf <= u_minus(18) <= +inf
   -inf <= u_minus(19) <= +inf
   -inf <= u_minus(20) <= +inf
   -inf <= u_minus(21) <= +inf
   -inf <= u_minus(22) <= +inf
   -inf <= u_minus(23) <= +inf
   -inf <= u_minus(24) <= +inf
   -inf <= u_minus(25) <= +inf
   -inf <= u_minus(26) <= +inf
   -inf <= u_minus(27) <= +inf
   -inf <= u_minus(28) <= +inf
   -inf <= u_minus(29) <= +inf
   -inf <= u_minus(30) <= +inf
   -inf <= u_minus(31) <= +inf
   -inf <= u_minus(32) <= +inf
   -inf <= u_minus(33) <= +inf
   -inf <= u_minus(34) <= +inf
   -inf <= u_minus(35) <= +inf
   -inf <= u_minus(36) <= +inf
   -inf <= u_minus(37) <= +inf
   -inf <= u_minus(38) <= +inf
   -inf <= u_minus(39) <= +inf
   -inf <= u_minus(40) <= +inf
   -inf <= u_minus(41) <= +inf
   -inf <= u_minus(42) <= +inf
   -inf <= u_minus(43) <= +inf
   -inf <= u_minus(44) <= +inf
   -inf <= u_minus(45) <= +inf
   -inf <= u_minus(46) <= +inf
   -inf <= u_minus(47) <= +inf
   -inf <= u_minus(48) <= +inf
   -inf <= u_minus(49) <= +inf
   -inf <= u_minus(50) <= +inf
   -inf <= u_minus(51) <= +inf
   -inf <= u_minus(52) <= +inf
   -inf <= u_minus(53) <= +inf
   -inf <= u_minus(54) <= +inf
   -inf <= u_minus(55) <= +inf
   -inf <= u_minus(56) <= +inf
   -inf <= u_minus(57) <= +inf
   -inf <= u_minus(58) <= +inf
   -inf <= u_minus(59) <= +inf
   -inf <= u_minus(60) <= +inf
   -inf <= u_minus(61) <= +inf
   -inf <= u_minus(62) <= +inf
   -inf <= u_minus(63) <= +inf
   -inf <= u_minus(64) <= +inf
   -inf <= u_minus(65) <= +inf
   -inf <= u_minus(66) <= +inf
   -inf <= u_minus(67) <= +inf
   -inf <= u_minus(68) <= +inf
   -inf <= u_minus(69) <= +inf
   -inf <= u_minus(70) <= +inf
   -inf <= u_minus(71) <= +inf
   -inf <= u_minus(72) <= +inf
   -inf <= u_minus(73) <= +inf
   -inf <= u_minus(74) <= +inf
   -inf <= u_minus(75) <= +inf
   -inf <= u_minus(76) <= +inf
   -inf <= u_minus(77) <= +inf
   -inf <= u_minus(78) <= +inf
   -inf <= u_minus(79) <= +inf
   -inf <= u_minus(80) <= +inf
   -inf <= u_minus(81) <= +inf
   -inf <= u_minus(82) <= +inf
   -inf <= u_minus(83) <= +inf
   -inf <= u_minus(84) <= +inf
   -inf <= u_minus(85) <= +inf
   -inf <= u_minus(86) <= +inf
   -inf <= u_minus(87) <= +inf
   -inf <= u_minus(88) <= +inf
   -inf <= u_minus(89) <= +inf
   -inf <= u_minus(90) <= +inf
   -inf <= u_minus(91) <= +inf
   -inf <= u_minus(92) <= +inf
   -inf <= u_minus(93) <= +inf
   -inf <= u_minus(94) <= +inf
   -inf <= u_minus(95) <= +inf
   -inf <= u_minus(96) <= +inf
   -inf <= u_minus(97) <= +inf
   -inf <= u_minus(98) <= +inf
   -inf <= u_minus(99) <= +inf
   -inf <= u_minus(100) <= +inf
   0 <= x(1) <= +inf
   0 <= x(2) <= +inf
   0 <= x(3) <= +inf
   0 <= x(4) <= +inf
   0 <= x(5) <= +inf
   0 <= x(6) <= +inf
   0 <= x(7) <= +inf
   0 <= x(8) <= +inf
   0 <= x(9) <= +inf
   0 <= x(10) <= +inf
   0 <= x(11) <= +inf
   0 <= x(12) <= +inf
   0 <= x(13) <= +inf
   0 <= x(14) <= +inf
   0 <= x(15) <= +inf
   0 <= x(16) <= +inf
   0 <= x(17) <= +inf
   0 <= x(18) <= +inf
   0 <= x(19) <= +inf
   0 <= x(20) <= +inf
   0 <= x(21) <= +inf
   0 <= x(22) <= +inf
   0 <= x(23) <= +inf
   0 <= x(24) <= +inf
   0 <= x(25) <= +inf
   0 <= x(26) <= +inf
   0 <= x(27) <= +inf
   0 <= x(28) <= +inf
   0 <= x(29) <= +inf
   0 <= x(30) <= +inf
   0 <= x(31) <= +inf
   0 <= x(32) <= +inf
   0 <= x(33) <= +inf
   0 <= x(34) <= +inf
   0 <= x(35) <= +inf
   0 <= x(36) <= +inf
   0 <= x(37) <= +inf
   0 <= x(38) <= +inf
   0 <= x(39) <= +inf
   0 <= x(40) <= +inf
   0 <= x(41) <= +inf
   0 <= x(42) <= +inf
   0 <= x(43) <= +inf
   0 <= x(44) <= +inf
   0 <= x(45) <= +inf
   0 <= x(46) <= +inf
   0 <= x(47) <= +inf
   0 <= x(48) <= +inf
   0 <= x(49) <= +inf
   0 <= x(50) <= +inf
   0 <= x(51) <= +inf
   0 <= x(52) <= +inf
   0 <= x(53) <= +inf
   0 <= x(54) <= +inf
   0 <= x(55) <= +inf
   0 <= x(56) <= +inf
   0 <= x(57) <= +inf
   0 <= x(58) <= +inf
   0 <= x(59) <= +inf
   0 <= x(60) <= +inf
   0 <= x(61) <= +inf
   0 <= x(62) <= +inf
   0 <= x(63) <= +inf
   0 <= x(64) <= +inf
   0 <= x(65) <= +inf
   0 <= x(66) <= +inf
   0 <= x(67) <= +inf
   0 <= x(68) <= +inf
   0 <= x(69) <= +inf
   0 <= x(70) <= +inf
   0 <= x(71) <= +inf
   0 <= x(72) <= +inf
   0 <= x(73) <= +inf
   0 <= x(74) <= +inf
   0 <= x(75) <= +inf
   0 <= x(76) <= +inf
   0 <= x(77) <= +inf
   0 <= x(78) <= +inf
   0 <= x(79) <= +inf
   0 <= x(80) <= +inf
   0 <= x(81) <= +inf
   0 <= x(82) <= +inf
   0 <= x(83) <= +inf
   0 <= x(84) <= +inf
   0 <= x(85) <= +inf
   0 <= x(86) <= +inf
   0 <= x(87) <= +inf
   0 <= x(88) <= +inf
   0 <= x(89) <= +inf
   0 <= x(90) <= +inf
   0 <= x(91) <= +inf
   0 <= x(92) <= +inf
   0 <= x(93) <= +inf
   0 <= x(94) <= +inf
   0 <= x(95) <= +inf
   0 <= x(96) <= +inf
   0 <= x(97) <= +inf
   0 <= x(98) <= +inf
   0 <= x(99) <= +inf
   0 <= x(100) <= +inf
end
